ModelsBigM/BigMLazyCon_7.lp
\ENCODING=ISO-8859-1
\Problem name: ilog.cplex

Minimize
 obj: _6step1#6 + _6step2#7 + _6step3#8 + _8step1#13 + _8step2#14 + _8step3#15
      + _9step1#24 + _9step2#25 + _9step3#26 + _10step1#34 + _10step2#35
      + _10step3#36 + _11step1#60 + _11step2#61 + _11step3#62 + _12step1#84
      + _12step2#85 + _12step3#86 + _13step1#95 + _13step2#96 + _13step3#97
      + _14step1#122 + _14step2#123 + _14step3#124
Subject To
 LB_6T28#0:                    _6T28#0 >= 360
 LB_6T29#1:                    _6T29#1 >= 780
 prec_6T29_6T28#2:             - _6T28#0 + _6T29#1 >= 420
 LB_6T30#3:                    _6T30#2 >= 1740
 prec_6T30_6T29#4:             - _6T29#1 + _6T30#2 >= 960
 LB_6T31#5:                    _6T31#3 >= 2040
 prec_6T31_6T30#6:             - _6T30#2 + _6T31#3 >= 300
 LB_6T32#7:                    _6T32#4 >= 2340
 prec_6T32_6T31#8:             - _6T31#3 + _6T32#4 >= 300
 LB_6T33#9:                    _6T33#5 >= 2690
 prec_6T33_6T32#10:            - _6T32#4 + _6T33#5 >= 350
 _6step1#11:                   _6T33#5 - 69915 _6step1#6 <= 2330
 _6step2#12:                   _6T33#5 - 69735 _6step2#7 <= 2510
 _6step3#13:                   _6T33#5 - 69555 _6step3#8 <= 2690
 LB_8T24#14:                   _8T24#9 >= 1
 LB_8T25#15:                   _8T25#10 >= 241
 prec_8T25_8T24#16:            - _8T24#9 + _8T25#10 >= 240
 LB_8T26#17:                   _8T26#11 >= 661
 prec_8T26_8T25#18:            - _8T25#10 + _8T26#11 >= 420
 LB_8T27#19:                   _8T27#12 >= 781
 prec_8T27_8T26#20:            - _8T26#11 + _8T27#12 >= 120
 _8step1#21:                   _8T27#12 - 69915 _8step1#13 <= 780
 _8step2#22:                   _8T27#12 - 69735 _8step2#14 <= 960
 _8step3#23:                   _8T27#12 - 69555 _8step3#15 <= 1140
 LB_9T20#24:                   _9T20#16 >= 25
 LB_9T21#25:                   _9T21#17 >= 85
 prec_9T21_9T20#26:            - _9T20#16 + _9T21#17 >= 60
 LB_9T22#27:                   _9T22#18 >= 565
 prec_9T22_9T21#28:            - _9T21#17 + _9T22#18 >= 480
 LB_9T23#29:                   _9T23#19 >= 865
 prec_9T23_9T22#30:            - _9T22#18 + _9T23#19 >= 300
 LB_9T24#31:                   _9T24#20 >= 1165
 prec_9T24_9T23#32:            - _9T23#19 + _9T24#20 >= 300
 LB_9T25#33:                   _9T25#21 >= 1405
 prec_9T25_9T24#34:            - _9T24#20 + _9T25#21 >= 240
 LB_9T26#35:                   _9T26#22 >= 1825
 prec_9T26_9T25#36:            - _9T25#21 + _9T26#22 >= 420
 LB_9T27#37:                   _9T27#23 >= 1945
 prec_9T27_9T26#38:            - _9T26#22 + _9T27#23 >= 120
 _9step1#39:                   _9T27#23 - 69915 _9step1#24 <= 1920
 _9step2#40:                   _9T27#23 - 69735 _9step2#25 <= 2100
 _9step3#41:                   _9T27#23 - 69555 _9step3#26 <= 2280
 LB_10T10#42:                  _10T10#27 >= 59
 LB_10T9#43:                   _10T9#28 >= 1019
 prec_10T9_10T10#44:           - _10T10#27 + _10T9#28 >= 960
 LB_10T8#45:                   _10T8#29 >= 1289
 prec_10T8_10T9#46:            - _10T9#28 + _10T8#29 >= 270
 LB_10T7#47:                   _10T7#30 >= 1529
 prec_10T7_10T8#48:            - _10T8#29 + _10T7#30 >= 240
 LB_10T5#49:                   _10T5#31 >= 1659
 prec_10T5_10T7#50:            - _10T7#30 + _10T5#31 >= 130
 LB_10T3#51:                   _10T3#32 >= 1769
 prec_10T3_10T5#52:            - _10T5#31 + _10T3#32 >= 110
 LB_10T1#53:                   _10T1#33 >= 1979
 prec_10T1_10T3#54:            - _10T3#32 + _10T1#33 >= 210
 _10step1#55:                  _10T1#33 - 69915 _10step1#34 <= 1920
 _10step2#56:                  _10T1#33 - 69735 _10step2#35 <= 2100
 _10step3#57:                  _10T1#33 - 69555 _10step3#36 <= 2280
 LB_11T26#58:                  _11T26#37 >= 360
 LB_11T25#59:                  _11T25#38 >= 555
 prec_11T25_11T26#60:          - _11T26#37 + _11T25#38 >= 195
 LB_11T24#61:                  _11T24#39 >= 955
 prec_11T24_11T25#62:          - _11T25#38 + _11T24#39 >= 400
 LB_11T23#63:                  _11T23#40 >= 1295
 prec_11T23_11T24#64:          - _11T24#39 + _11T23#40 >= 340
 LB_11T22#65:                  _11T22#41 >= 1655
 prec_11T22_11T23#66:          - _11T23#40 + _11T22#41 >= 360
 LB_11T21#67:                  _11T21#42 >= 1925
 prec_11T21_11T22#68:          - _11T22#41 + _11T21#42 >= 270
 LB_11T20#69:                  _11T20#43 >= 2075
 prec_11T20_11T21#70:          - _11T21#42 + _11T20#43 >= 150
 LB_11T19#71:                  _11T19#44 >= 2225
 prec_11T19_11T20#72:          - _11T20#43 + _11T19#44 >= 150
 LB_11T18#73:                  _11T18#45 >= 2645
 prec_11T18_11T19#74:          - _11T19#44 + _11T18#45 >= 420
 LB_11T17#75:                  _11T17#46 >= 2945
 prec_11T17_11T18#76:          - _11T18#45 + _11T17#46 >= 300
 LB_11T16#77:                  _11T16#47 >= 3185
 prec_11T16_11T17#78:          - _11T17#46 + _11T16#47 >= 240
 LB_11T15#79:                  _11T15#48 >= 3256
 prec_11T15_11T16#80:          - _11T16#47 + _11T15#48 >= 71
 LB_11T14#81:                  _11T14#49 >= 3365
 prec_11T14_11T15#82:          - _11T15#48 + _11T14#49 >= 109
 LB_11T13#83:                  _11T13#50 >= 3635
 prec_11T13_11T14#84:          - _11T14#49 + _11T13#50 >= 270
 LB_11T12#85:                  _11T12#51 >= 3965
 prec_11T12_11T13#86:          - _11T13#50 + _11T12#51 >= 330
 LB_11T11#87:                  _11T11#52 >= 4053
 prec_11T11_11T12#88:          - _11T12#51 + _11T11#52 >= 88
 LB_11T10#89:                  _11T10#53 >= 4145
 prec_11T10_11T11#90:          - _11T11#52 + _11T10#53 >= 92
 LB_11T9#91:                   _11T9#54 >= 4565
 prec_11T9_11T10#92:           - _11T10#53 + _11T9#54 >= 420
 LB_11T8#93:                   _11T8#55 >= 4775
 prec_11T8_11T9#94:            - _11T9#54 + _11T8#55 >= 210
 LB_11T7#95:                   _11T7#56 >= 5015
 prec_11T7_11T8#96:            - _11T8#55 + _11T7#56 >= 240
 LB_11T5#97:                   _11T5#57 >= 5145
 prec_11T5_11T7#98:            - _11T7#56 + _11T5#57 >= 130
 LB_11T3#99:                   _11T3#58 >= 5194
 prec_11T3_11T5#100:           - _11T5#57 + _11T3#58 >= 49
 LB_11T1#101:                  _11T1#59 >= 5360
 prec_11T1_11T3#102:           - _11T3#58 + _11T1#59 >= 166
 _11step1#103:                 _11T1#59 - 69915 _11step1#60 <= 5000
 _11step2#104:                 _11T1#59 - 69735 _11step2#61 <= 5180
 _11step3#105:                 _11T1#59 - 69555 _11step3#62 <= 5360
 LB_12T13#106:                 _12T13#63 >= 1
 LB_12T14#107:                 _12T14#64 >= 241
 prec_12T14_12T13#108:         - _12T13#63 + _12T14#64 >= 240
 LB_12T15#109:                 _12T15#65 >= 421
 prec_12T15_12T14#110:         - _12T14#64 + _12T15#65 >= 180
 LB_12T16#111:                 _12T16#66 >= 523
 prec_12T16_12T15#112:         - _12T15#65 + _12T16#66 >= 102
 LB_12T17#113:                 _12T17#67 >= 601
 prec_12T17_12T16#114:         - _12T16#66 + _12T17#67 >= 78
 LB_12T18#115:                 _12T18#68 >= 841
 prec_12T18_12T17#116:         - _12T17#67 + _12T18#68 >= 240
 LB_12T19#117:                 _12T19#69 >= 1021
 prec_12T19_12T18#118:         - _12T18#68 + _12T19#69 >= 180
 LB_12T20#119:                 _12T20#70 >= 1201
 prec_12T20_12T19#120:         - _12T19#69 + _12T20#70 >= 180
 LB_12T21#121:                 _12T21#71 >= 1261
 prec_12T21_12T20#122:         - _12T20#70 + _12T21#71 >= 60
 LB_12T22#123:                 _12T22#72 >= 1441
 prec_12T22_12T21#124:         - _12T21#71 + _12T22#72 >= 180
 LB_12T23#125:                 _12T23#73 >= 1681
 prec_12T23_12T22#126:         - _12T22#72 + _12T23#73 >= 240
 LB_12T24#127:                 _12T24#74 >= 1981
 prec_12T24_12T23#128:         - _12T23#73 + _12T24#74 >= 300
 LB_12T25#129:                 _12T25#75 >= 2221
 prec_12T25_12T24#130:         - _12T24#74 + _12T25#75 >= 240
 LB_12T26#131:                 _12T26#76 >= 2641
 prec_12T26_12T25#132:         - _12T25#75 + _12T26#76 >= 420
 LB_12T27#133:                 _12T27#77 >= 2761
 prec_12T27_12T26#134:         - _12T26#76 + _12T27#77 >= 120
 LB_12T28#135:                 _12T28#78 >= 3001
 prec_12T28_12T27#136:         - _12T27#77 + _12T28#78 >= 240
 LB_12T29#137:                 _12T29#79 >= 3481
 prec_12T29_12T28#138:         - _12T28#78 + _12T29#79 >= 480
 LB_12T30#139:                 _12T30#80 >= 4681
 prec_12T30_12T29#140:         - _12T29#79 + _12T30#80 >= 1200
 LB_12T31#141:                 _12T31#81 >= 4981
 prec_12T31_12T30#142:         - _12T30#80 + _12T31#81 >= 300
 LB_12T32#143:                 _12T32#82 >= 5341
 prec_12T32_12T31#144:         - _12T31#81 + _12T32#82 >= 360
 LB_12T33#145:                 _12T33#83 >= 5691
 prec_12T33_12T32#146:         - _12T32#82 + _12T33#83 >= 350
 _12step1#147:                 _12T33#83 - 69915 _12step1#84 <= 5690
 _12step2#148:                 _12T33#83 - 69735 _12step2#85 <= 5870
 _12step3#149:                 _12T33#83 - 69555 _12step3#86 <= 6050
 LB_13T9#150:                  _13T9#87 >= 1
 LB_13T10#151:                 _13T10#88 >= 241
 prec_13T10_13T9#152:          - _13T9#87 + _13T10#88 >= 240
 LB_13T11#153:                 _13T11#89 >= 541
 prec_13T11_13T10#154:         - _13T10#88 + _13T11#89 >= 300
 LB_13T12#155:                 _13T12#90 >= 601
 prec_13T12_13T11#156:         - _13T11#89 + _13T12#90 >= 60
 LB_13T13#157:                 _13T13#91 >= 781
 prec_13T13_13T12#158:         - _13T12#90 + _13T13#91 >= 180
 LB_13T14#159:                 _13T14#92 >= 1141
 prec_13T14_13T13#160:         - _13T13#91 + _13T14#92 >= 360
 LB_13T15#161:                 _13T15#93 >= 1621
 prec_13T15_13T14#162:         - _13T14#92 + _13T15#93 >= 480
 LB_13T16#163:                 _13T16#94 >= 1741
 prec_13T16_13T15#164:         - _13T15#93 + _13T16#94 >= 120
 _13step1#165:                 _13T16#94 - 69915 _13step1#95 <= 1740
 _13step2#166:                 _13T16#94 - 69735 _13step2#96 <= 1920
 _13step3#167:                 _13T16#94 - 69555 _13step3#97 <= 2100
 LB_14T1#168:                  _14T1#98 >= 360
 LB_14T2#169:                  _14T2#99 >= 495
 prec_14T2_14T1#170:           - _14T1#98 + _14T2#99 >= 135
 LB_14T4#171:                  _14T4#100 >= 660
 prec_14T4_14T2#172:           - _14T2#99 + _14T4#100 >= 165
 LB_14T6#173:                  _14T6#101 >= 740
 prec_14T6_14T4#174:           - _14T4#100 + _14T6#101 >= 80
 LB_14T8#175:                  _14T8#102 >= 1080
 prec_14T8_14T6#176:           - _14T6#101 + _14T8#102 >= 340
 LB_14T9#177:                  _14T9#103 >= 1200
 prec_14T9_14T8#178:           - _14T8#102 + _14T9#103 >= 120
 LB_14T10#179:                 _14T10#104 >= 1380
 prec_14T10_14T9#180:          - _14T9#103 + _14T10#104 >= 180
 LB_14T11#181:                 _14T11#105 >= 1680
 prec_14T11_14T10#182:         - _14T10#104 + _14T11#105 >= 300
 LB_14T12#183:                 _14T12#106 >= 1740
 prec_14T12_14T11#184:         - _14T11#105 + _14T12#106 >= 60
 LB_14T13#185:                 _14T13#107 >= 2160
 prec_14T13_14T12#186:         - _14T12#106 + _14T13#107 >= 420
 LB_14T14#187:                 _14T14#108 >= 2520
 prec_14T14_14T13#188:         - _14T13#107 + _14T14#108 >= 360
 LB_14T15#189:                 _14T15#109 >= 2760
 prec_14T15_14T14#190:         - _14T14#108 + _14T15#109 >= 240
 LB_14T16#191:                 _14T16#110 >= 2880
 prec_14T16_14T15#192:         - _14T15#109 + _14T16#110 >= 120
 LB_14T17#193:                 _14T17#111 >= 3060
 prec_14T17_14T16#194:         - _14T16#110 + _14T17#111 >= 180
 LB_14T18#195:                 _14T18#112 >= 3300
 prec_14T18_14T17#196:         - _14T17#111 + _14T18#112 >= 240
 LB_14T19#197:                 _14T19#113 >= 3480
 prec_14T19_14T18#198:         - _14T18#112 + _14T19#113 >= 180
 LB_14T20#199:                 _14T20#114 >= 3660
 prec_14T20_14T19#200:         - _14T19#113 + _14T20#114 >= 180
 LB_14T21#201:                 _14T21#115 >= 3720
 prec_14T21_14T20#202:         - _14T20#114 + _14T21#115 >= 60
 LB_14T22#203:                 _14T22#116 >= 3960
 prec_14T22_14T21#204:         - _14T21#115 + _14T22#116 >= 240
 LB_14T23#205:                 _14T23#117 >= 4380
 prec_14T23_14T22#206:         - _14T22#116 + _14T23#117 >= 420
 LB_14T24#207:                 _14T24#118 >= 4740
 prec_14T24_14T23#208:         - _14T23#117 + _14T24#118 >= 360
 LB_14T25#209:                 _14T25#119 >= 4980
 prec_14T25_14T24#210:         - _14T24#118 + _14T25#119 >= 240
 LB_14T26#211:                 _14T26#120 >= 5400
 prec_14T26_14T25#212:         - _14T25#119 + _14T26#120 >= 420
 LB_14T27#213:                 _14T27#121 >= 5520
 prec_14T27_14T26#214:         - _14T26#120 + _14T27#121 >= 120
 _14step1#215:                 _14T27#121 - 69915 _14step1#122 <= 5520
 _14step2#216:                 _14T27#121 - 69735 _14step2#123 <= 5700
 _14step3#217:                 _14T27#121 - 69555 _14step3#124 <= 5880
 Domain_10T1_vs_11T1#218:      _10T1prec11T1#125 >= 0
 Domain_10T1_vs_14T1#219:      _10T1prec14T1#126 >= 0
 Domain_11T1_vs_14T1#220:      _11T1prec14T1#127 >= 0
 Domain_10T3_vs_11T3#221:      _10T3prec11T3#128 >= 0
 Domain_10T5_vs_11T5#222:      _10T5prec11T5#129 >= 0
 Domain_10T7_vs_11T7#223:      _10T7prec11T7#130 >= 0
 Domain_10T8_vs_11T8#224:      _10T8prec11T8#131 >= 0
 Domain_10T8_vs_14T8#225:      _10T8prec14T8#132 >= 0
 Domain_11T8_vs_14T8#226:      _11T8prec14T8#133 >= 0
 Domain_10T9_vs_11T9#227:      _10T9prec11T9#134 >= 0
 Domain_10T9_vs_13T9#228:      _10T9prec13T9#135 >= 0
 InitiDisj_10T9_vs_14T9#229:   - _10T9#28 + _14T9#103 + 69915 _10T9prec14T9#136
                               >= 240
 InitiDisj_14T9_vs_10T9#230:   _10T9#28 - _14T9#103 - 69915 _10T9prec14T9#136
                               >= -69765
 Domain_11T9_vs_13T9#231:      _11T9prec13T9#137 >= 0
 Domain_11T9_vs_14T9#232:      _11T9prec14T9#138 >= 0
 Domain_13T9_vs_14T9#233:      _13T9prec14T9#139 >= 0
 Domain_10T10_vs_11T10#234:    _10T10prec11T10#140 >= 0
 InitiDisj_10T10_vs_13T10#235: - _10T10#27 + _13T10#88
                               + 69915 _10T10prec13T10#141 >= 840
 InitiDisj_13T10_vs_10T10#236: _10T10#27 - _13T10#88
                               - 69915 _10T10prec13T10#141 >= -69615
 Domain_10T10_vs_14T10#237:    _10T10prec14T10#142 >= 0
 Domain_11T10_vs_13T10#238:    _11T10prec13T10#143 >= 0
 Domain_11T10_vs_14T10#239:    _11T10prec14T10#144 >= 0
 Domain_13T10_vs_14T10#240:    _13T10prec14T10#145 >= 0
 Domain_11T11_vs_13T11#241:    _11T11prec13T11#146 >= 0
 Domain_11T11_vs_14T11#242:    _11T11prec14T11#147 >= 0
 Domain_13T11_vs_14T11#243:    _13T11prec14T11#148 >= 0
 Domain_11T12_vs_13T12#244:    _11T12prec13T12#149 >= 0
 Domain_11T12_vs_14T12#245:    _11T12prec14T12#150 >= 0
 Domain_13T12_vs_14T12#246:    _13T12prec14T12#151 >= 0
 Domain_11T13_vs_12T13#247:    _11T13prec12T13#152 >= 0
 Domain_11T13_vs_13T13#248:    _11T13prec13T13#153 >= 0
 Domain_11T13_vs_14T13#249:    _11T13prec14T13#154 >= 0
 Domain_12T13_vs_13T13#250:    _12T13prec13T13#155 >= 0
 Domain_12T13_vs_14T13#251:    _12T13prec14T13#156 >= 0
 Domain_13T13_vs_14T13#252:    _13T13prec14T13#157 >= 0
 Domain_11T14_vs_12T14#253:    _11T14prec12T14#158 >= 0
 Domain_11T14_vs_13T14#254:    _11T14prec13T14#159 >= 0
 Domain_11T14_vs_14T14#255:    _11T14prec14T14#160 >= 0
 Domain_12T14_vs_13T14#256:    _12T14prec13T14#161 >= 0
 Domain_12T14_vs_14T14#257:    _12T14prec14T14#162 >= 0
 Domain_13T14_vs_14T14#258:    _13T14prec14T14#163 >= 0
 Domain_11T15_vs_12T15#259:    _11T15prec12T15#164 >= 0
 Domain_11T15_vs_13T15#260:    _11T15prec13T15#165 >= 0
 Domain_11T15_vs_14T15#261:    _11T15prec14T15#166 >= 0
 Domain_12T15_vs_13T15#262:    _12T15prec13T15#167 >= 0
 Domain_12T15_vs_14T15#263:    _12T15prec14T15#168 >= 0
 Domain_13T15_vs_14T15#264:    _13T15prec14T15#169 >= 0
 Domain_11T16_vs_12T16#265:    _11T16prec12T16#170 >= 0
 Domain_11T16_vs_13T16#266:    _11T16prec13T16#171 >= 0
 Domain_11T16_vs_14T16#267:    _11T16prec14T16#172 >= 0
 Domain_12T16_vs_13T16#268:    _12T16prec13T16#173 >= 0
 Domain_12T16_vs_14T16#269:    _12T16prec14T16#174 >= 0
 Domain_13T16_vs_14T16#270:    _13T16prec14T16#175 >= 0
 Domain_11T17_vs_12T17#271:    _11T17prec12T17#176 >= 0
 InitiDisj_11T17_vs_14T17#272: - _11T17#46 + _14T17#111
                               + 69915 _11T17prec14T17#177 >= 240
 InitiDisj_14T17_vs_11T17#273: _11T17#46 - _14T17#111
                               - 69915 _11T17prec14T17#177 >= -69675
 Domain_12T17_vs_14T17#274:    _12T17prec14T17#178 >= 0
 Domain_11T18_vs_12T18#275:    _11T18prec12T18#179 >= 0
 Domain_11T18_vs_14T18#276:    _11T18prec14T18#180 >= 0
 Domain_12T18_vs_14T18#277:    _12T18prec14T18#181 >= 0
 Domain_11T19_vs_12T19#278:    _11T19prec12T19#182 >= 0
 Domain_11T19_vs_14T19#279:    _11T19prec14T19#183 >= 0
 Domain_12T19_vs_14T19#280:    _12T19prec14T19#184 >= 0
 Domain_9T20_vs_11T20#281:     _9T20prec11T20#185 >= 0
 Domain_9T20_vs_12T20#282:     _9T20prec12T20#186 >= 0
 Domain_9T20_vs_14T20#283:     _9T20prec14T20#187 >= 0
 Domain_11T20_vs_12T20#284:    _11T20prec12T20#188 >= 0
 Domain_11T20_vs_14T20#285:    _11T20prec14T20#189 >= 0
 Domain_12T20_vs_14T20#286:    _12T20prec14T20#190 >= 0
 Domain_9T21_vs_11T21#287:     _9T21prec11T21#191 >= 0
 Domain_9T21_vs_12T21#288:     _9T21prec12T21#192 >= 0
 Domain_9T21_vs_14T21#289:     _9T21prec14T21#193 >= 0
 Domain_11T21_vs_12T21#290:    _11T21prec12T21#194 >= 0
 Domain_11T21_vs_14T21#291:    _11T21prec14T21#195 >= 0
 Domain_12T21_vs_14T21#292:    _12T21prec14T21#196 >= 0
 Domain_9T22_vs_11T22#293:     _9T22prec11T22#197 >= 0
 Domain_9T22_vs_12T22#294:     _9T22prec12T22#198 >= 0
 Domain_9T22_vs_14T22#295:     _9T22prec14T22#199 >= 0
 Domain_11T22_vs_12T22#296:    _11T22prec12T22#200 >= 0
 Domain_11T22_vs_14T22#297:    _11T22prec14T22#201 >= 0
 Domain_12T22_vs_14T22#298:    _12T22prec14T22#202 >= 0
 Domain_9T23_vs_11T23#299:     _9T23prec11T23#203 >= 0
 Domain_9T23_vs_12T23#300:     _9T23prec12T23#204 >= 0
 Domain_9T23_vs_14T23#301:     _9T23prec14T23#205 >= 0
 Domain_11T23_vs_12T23#302:    _11T23prec12T23#206 >= 0
 Domain_11T23_vs_14T23#303:    _11T23prec14T23#207 >= 0
 Domain_12T23_vs_14T23#304:    _12T23prec14T23#208 >= 0
 Domain_8T24_vs_9T24#305:      _8T24prec9T24#209 >= 0
 Domain_8T24_vs_11T24#306:     _8T24prec11T24#210 >= 0
 Domain_8T24_vs_12T24#307:     _8T24prec12T24#211 >= 0
 Domain_8T24_vs_14T24#308:     _8T24prec14T24#212 >= 0
 InitiDisj_9T24_vs_11T24#309:  - _9T24#20 + _11T24#39
                               + 69915 _9T24prec11T24#213 >= 220
 InitiDisj_11T24_vs_9T24#310:  _9T24#20 - _11T24#39 - 69915 _9T24prec11T24#213
                               >= -69605
 Domain_9T24_vs_12T24#311:     _9T24prec12T24#214 >= 0
 Domain_9T24_vs_14T24#312:     _9T24prec14T24#215 >= 0
 Domain_11T24_vs_12T24#313:    _11T24prec12T24#216 >= 0
 Domain_11T24_vs_14T24#314:    _11T24prec14T24#217 >= 0
 Domain_12T24_vs_14T24#315:    _12T24prec14T24#218 >= 0
 Domain_8T25_vs_9T25#316:      _8T25prec9T25#219 >= 0
 InitiDisj_8T25_vs_11T25#317:  - _8T25#10 + _11T25#38
                               + 69915 _8T25prec11T25#220 >= 390
 InitiDisj_11T25_vs_8T25#318:  _8T25#10 - _11T25#38 - 69915 _8T25prec11T25#220
                               >= -69525
 Domain_8T25_vs_12T25#319:     _8T25prec12T25#221 >= 0
 Domain_8T25_vs_14T25#320:     _8T25prec14T25#222 >= 0
 Domain_9T25_vs_11T25#321:     _9T25prec11T25#223 >= 0
 Domain_9T25_vs_12T25#322:     _9T25prec12T25#224 >= 0
 Domain_9T25_vs_14T25#323:     _9T25prec14T25#225 >= 0
 Domain_11T25_vs_12T25#324:    _11T25prec12T25#226 >= 0
 Domain_11T25_vs_14T25#325:    _11T25prec14T25#227 >= 0
 Domain_12T25_vs_14T25#326:    _12T25prec14T25#228 >= 0
 Domain_8T26_vs_9T26#327:      _8T26prec9T26#229 >= 0
 Domain_8T26_vs_11T26#328:     _8T26prec11T26#230 >= 0
 Domain_8T26_vs_12T26#329:     _8T26prec12T26#231 >= 0
 Domain_8T26_vs_14T26#330:     _8T26prec14T26#232 >= 0
 Domain_9T26_vs_11T26#331:     _9T26prec11T26#233 >= 0
 Domain_9T26_vs_12T26#332:     _9T26prec12T26#234 >= 0
 Domain_9T26_vs_14T26#333:     _9T26prec14T26#235 >= 0
 Domain_11T26_vs_12T26#334:    _11T26prec12T26#236 >= 0
 Domain_11T26_vs_14T26#335:    _11T26prec14T26#237 >= 0
 Domain_12T26_vs_14T26#336:    _12T26prec14T26#238 >= 0
 Domain_8T27_vs_9T27#337:      _8T27prec9T27#239 >= 0
 Domain_8T27_vs_12T27#338:     _8T27prec12T27#240 >= 0
 Domain_8T27_vs_14T27#339:     _8T27prec14T27#241 >= 0
 Domain_9T27_vs_12T27#340:     _9T27prec12T27#242 >= 0
 Domain_9T27_vs_14T27#341:     _9T27prec14T27#243 >= 0
 Domain_12T27_vs_14T27#342:    _12T27prec14T27#244 >= 0
 Domain_6T28_vs_12T28#343:     _6T28prec12T28#245 >= 0
 Domain_6T29_vs_12T29#344:     _6T29prec12T29#246 >= 0
 Domain_6T30_vs_12T30#345:     _6T30prec12T30#247 >= 0
 Domain_6T31_vs_12T31#346:     _6T31prec12T31#248 >= 0
 Domain_6T32_vs_12T32#347:     _6T32prec12T32#249 >= 0
 Domain_6T33_vs_12T33#348:     _6T33prec12T33#250 >= 0
Bounds
 0 <= _6T28#0 <= 2147483647
 0 <= _6T29#1 <= 2147483647
 0 <= _6T30#2 <= 2147483647
 0 <= _6T31#3 <= 2147483647
 0 <= _6T32#4 <= 2147483647
 0 <= _6T33#5 <= 2147483647
 0 <= _6step1#6 <= 1
 0 <= _6step2#7 <= 1
 0 <= _6step3#8 <= 1
 0 <= _8T24#9 <= 2147483647
 0 <= _8T25#10 <= 2147483647
 0 <= _8T26#11 <= 2147483647
 0 <= _8T27#12 <= 2147483647
 0 <= _8step1#13 <= 1
 0 <= _8step2#14 <= 1
 0 <= _8step3#15 <= 1
 0 <= _9T20#16 <= 2147483647
 0 <= _9T21#17 <= 2147483647
 0 <= _9T22#18 <= 2147483647
 0 <= _9T23#19 <= 2147483647
 0 <= _9T24#20 <= 2147483647
 0 <= _9T25#21 <= 2147483647
 0 <= _9T26#22 <= 2147483647
 0 <= _9T27#23 <= 2147483647
 0 <= _9step1#24 <= 1
 0 <= _9step2#25 <= 1
 0 <= _9step3#26 <= 1
 0 <= _10T10#27 <= 2147483647
 0 <= _10T9#28 <= 2147483647
 0 <= _10T8#29 <= 2147483647
 0 <= _10T7#30 <= 2147483647
 0 <= _10T5#31 <= 2147483647
 0 <= _10T3#32 <= 2147483647
 0 <= _10T1#33 <= 2147483647
 0 <= _10step1#34 <= 1
 0 <= _10step2#35 <= 1
 0 <= _10step3#36 <= 1
 0 <= _11T26#37 <= 2147483647
 0 <= _11T25#38 <= 2147483647
 0 <= _11T24#39 <= 2147483647
 0 <= _11T23#40 <= 2147483647
 0 <= _11T22#41 <= 2147483647
 0 <= _11T21#42 <= 2147483647
 0 <= _11T20#43 <= 2147483647
 0 <= _11T19#44 <= 2147483647
 0 <= _11T18#45 <= 2147483647
 0 <= _11T17#46 <= 2147483647
 0 <= _11T16#47 <= 2147483647
 0 <= _11T15#48 <= 2147483647
 0 <= _11T14#49 <= 2147483647
 0 <= _11T13#50 <= 2147483647
 0 <= _11T12#51 <= 2147483647
 0 <= _11T11#52 <= 2147483647
 0 <= _11T10#53 <= 2147483647
 0 <= _11T9#54 <= 2147483647
 0 <= _11T8#55 <= 2147483647
 0 <= _11T7#56 <= 2147483647
 0 <= _11T5#57 <= 2147483647
 0 <= _11T3#58 <= 2147483647
 0 <= _11T1#59 <= 2147483647
 0 <= _11step1#60 <= 1
 0 <= _11step2#61 <= 1
 0 <= _11step3#62 <= 1
 0 <= _12T13#63 <= 2147483647
 0 <= _12T14#64 <= 2147483647
 0 <= _12T15#65 <= 2147483647
 0 <= _12T16#66 <= 2147483647
 0 <= _12T17#67 <= 2147483647
 0 <= _12T18#68 <= 2147483647
 0 <= _12T19#69 <= 2147483647
 0 <= _12T20#70 <= 2147483647
 0 <= _12T21#71 <= 2147483647
 0 <= _12T22#72 <= 2147483647
 0 <= _12T23#73 <= 2147483647
 0 <= _12T24#74 <= 2147483647
 0 <= _12T25#75 <= 2147483647
 0 <= _12T26#76 <= 2147483647
 0 <= _12T27#77 <= 2147483647
 0 <= _12T28#78 <= 2147483647
 0 <= _12T29#79 <= 2147483647
 0 <= _12T30#80 <= 2147483647
 0 <= _12T31#81 <= 2147483647
 0 <= _12T32#82 <= 2147483647
 0 <= _12T33#83 <= 2147483647
 0 <= _12step1#84 <= 1
 0 <= _12step2#85 <= 1
 0 <= _12step3#86 <= 1
 0 <= _13T9#87 <= 2147483647
 0 <= _13T10#88 <= 2147483647
 0 <= _13T11#89 <= 2147483647
 0 <= _13T12#90 <= 2147483647
 0 <= _13T13#91 <= 2147483647
 0 <= _13T14#92 <= 2147483647
 0 <= _13T15#93 <= 2147483647
 0 <= _13T16#94 <= 2147483647
 0 <= _13step1#95 <= 1
 0 <= _13step2#96 <= 1
 0 <= _13step3#97 <= 1
 0 <= _14T1#98 <= 2147483647
 0 <= _14T2#99 <= 2147483647
 0 <= _14T4#100 <= 2147483647
 0 <= _14T6#101 <= 2147483647
 0 <= _14T8#102 <= 2147483647
 0 <= _14T9#103 <= 2147483647
 0 <= _14T10#104 <= 2147483647
 0 <= _14T11#105 <= 2147483647
 0 <= _14T12#106 <= 2147483647
 0 <= _14T13#107 <= 2147483647
 0 <= _14T14#108 <= 2147483647
 0 <= _14T15#109 <= 2147483647
 0 <= _14T16#110 <= 2147483647
 0 <= _14T17#111 <= 2147483647
 0 <= _14T18#112 <= 2147483647
 0 <= _14T19#113 <= 2147483647
 0 <= _14T20#114 <= 2147483647
 0 <= _14T21#115 <= 2147483647
 0 <= _14T22#116 <= 2147483647
 0 <= _14T23#117 <= 2147483647
 0 <= _14T24#118 <= 2147483647
 0 <= _14T25#119 <= 2147483647
 0 <= _14T26#120 <= 2147483647
 0 <= _14T27#121 <= 2147483647
 0 <= _14step1#122 <= 1
 0 <= _14step2#123 <= 1
 0 <= _14step3#124 <= 1
 0 <= _10T1prec11T1#125 <= 1
 0 <= _10T1prec14T1#126 <= 1
 0 <= _11T1prec14T1#127 <= 1
 0 <= _10T3prec11T3#128 <= 1
 0 <= _10T5prec11T5#129 <= 1
 0 <= _10T7prec11T7#130 <= 1
 0 <= _10T8prec11T8#131 <= 1
 0 <= _10T8prec14T8#132 <= 1
 0 <= _11T8prec14T8#133 <= 1
 0 <= _10T9prec11T9#134 <= 1
 0 <= _10T9prec13T9#135 <= 1
 0 <= _10T9prec14T9#136 <= 1
 0 <= _11T9prec13T9#137 <= 1
 0 <= _11T9prec14T9#138 <= 1
 0 <= _13T9prec14T9#139 <= 1
 0 <= _10T10prec11T10#140 <= 1
 0 <= _10T10prec13T10#141 <= 1
 0 <= _10T10prec14T10#142 <= 1
 0 <= _11T10prec13T10#143 <= 1
 0 <= _11T10prec14T10#144 <= 1
 0 <= _13T10prec14T10#145 <= 1
 0 <= _11T11prec13T11#146 <= 1
 0 <= _11T11prec14T11#147 <= 1
 0 <= _13T11prec14T11#148 <= 1
 0 <= _11T12prec13T12#149 <= 1
 0 <= _11T12prec14T12#150 <= 1
 0 <= _13T12prec14T12#151 <= 1
 0 <= _11T13prec12T13#152 <= 1
 0 <= _11T13prec13T13#153 <= 1
 0 <= _11T13prec14T13#154 <= 1
 0 <= _12T13prec13T13#155 <= 1
 0 <= _12T13prec14T13#156 <= 1
 0 <= _13T13prec14T13#157 <= 1
 0 <= _11T14prec12T14#158 <= 1
 0 <= _11T14prec13T14#159 <= 1
 0 <= _11T14prec14T14#160 <= 1
 0 <= _12T14prec13T14#161 <= 1
 0 <= _12T14prec14T14#162 <= 1
 0 <= _13T14prec14T14#163 <= 1
 0 <= _11T15prec12T15#164 <= 1
 0 <= _11T15prec13T15#165 <= 1
 0 <= _11T15prec14T15#166 <= 1
 0 <= _12T15prec13T15#167 <= 1
 0 <= _12T15prec14T15#168 <= 1
 0 <= _13T15prec14T15#169 <= 1
 0 <= _11T16prec12T16#170 <= 1
 0 <= _11T16prec13T16#171 <= 1
 0 <= _11T16prec14T16#172 <= 1
 0 <= _12T16prec13T16#173 <= 1
 0 <= _12T16prec14T16#174 <= 1
 0 <= _13T16prec14T16#175 <= 1
 0 <= _11T17prec12T17#176 <= 1
 0 <= _11T17prec14T17#177 <= 1
 0 <= _12T17prec14T17#178 <= 1
 0 <= _11T18prec12T18#179 <= 1
 0 <= _11T18prec14T18#180 <= 1
 0 <= _12T18prec14T18#181 <= 1
 0 <= _11T19prec12T19#182 <= 1
 0 <= _11T19prec14T19#183 <= 1
 0 <= _12T19prec14T19#184 <= 1
 0 <= _9T20prec11T20#185 <= 1
 0 <= _9T20prec12T20#186 <= 1
 0 <= _9T20prec14T20#187 <= 1
 0 <= _11T20prec12T20#188 <= 1
 0 <= _11T20prec14T20#189 <= 1
 0 <= _12T20prec14T20#190 <= 1
 0 <= _9T21prec11T21#191 <= 1
 0 <= _9T21prec12T21#192 <= 1
 0 <= _9T21prec14T21#193 <= 1
 0 <= _11T21prec12T21#194 <= 1
 0 <= _11T21prec14T21#195 <= 1
 0 <= _12T21prec14T21#196 <= 1
 0 <= _9T22prec11T22#197 <= 1
 0 <= _9T22prec12T22#198 <= 1
 0 <= _9T22prec14T22#199 <= 1
 0 <= _11T22prec12T22#200 <= 1
 0 <= _11T22prec14T22#201 <= 1
 0 <= _12T22prec14T22#202 <= 1
 0 <= _9T23prec11T23#203 <= 1
 0 <= _9T23prec12T23#204 <= 1
 0 <= _9T23prec14T23#205 <= 1
 0 <= _11T23prec12T23#206 <= 1
 0 <= _11T23prec14T23#207 <= 1
 0 <= _12T23prec14T23#208 <= 1
 0 <= _8T24prec9T24#209 <= 1
 0 <= _8T24prec11T24#210 <= 1
 0 <= _8T24prec12T24#211 <= 1
 0 <= _8T24prec14T24#212 <= 1
 0 <= _9T24prec11T24#213 <= 1
 0 <= _9T24prec12T24#214 <= 1
 0 <= _9T24prec14T24#215 <= 1
 0 <= _11T24prec12T24#216 <= 1
 0 <= _11T24prec14T24#217 <= 1
 0 <= _12T24prec14T24#218 <= 1
 0 <= _8T25prec9T25#219 <= 1
 0 <= _8T25prec11T25#220 <= 1
 0 <= _8T25prec12T25#221 <= 1
 0 <= _8T25prec14T25#222 <= 1
 0 <= _9T25prec11T25#223 <= 1
 0 <= _9T25prec12T25#224 <= 1
 0 <= _9T25prec14T25#225 <= 1
 0 <= _11T25prec12T25#226 <= 1
 0 <= _11T25prec14T25#227 <= 1
 0 <= _12T25prec14T25#228 <= 1
 0 <= _8T26prec9T26#229 <= 1
 0 <= _8T26prec11T26#230 <= 1
 0 <= _8T26prec12T26#231 <= 1
 0 <= _8T26prec14T26#232 <= 1
 0 <= _9T26prec11T26#233 <= 1
 0 <= _9T26prec12T26#234 <= 1
 0 <= _9T26prec14T26#235 <= 1
 0 <= _11T26prec12T26#236 <= 1
 0 <= _11T26prec14T26#237 <= 1
 0 <= _12T26prec14T26#238 <= 1
 0 <= _8T27prec9T27#239 <= 1
 0 <= _8T27prec12T27#240 <= 1
 0 <= _8T27prec14T27#241 <= 1
 0 <= _9T27prec12T27#242 <= 1
 0 <= _9T27prec14T27#243 <= 1
 0 <= _12T27prec14T27#244 <= 1
 0 <= _6T28prec12T28#245 <= 1
 0 <= _6T29prec12T29#246 <= 1
 0 <= _6T30prec12T30#247 <= 1
 0 <= _6T31prec12T31#248 <= 1
 0 <= _6T32prec12T32#249 <= 1
 0 <= _6T33prec12T33#250 <= 1
Binaries
 _6step1#6  _6step2#7  _6step3#8  _8step1#13  _8step2#14  _8step3#15 
 _9step1#24  _9step2#25  _9step3#26  _10step1#34  _10step2#35  _10step3#36 
 _11step1#60  _11step2#61  _11step3#62  _12step1#84  _12step2#85  _12step3#86 
 _13step1#95  _13step2#96  _13step3#97  _14step1#122  _14step2#123 
 _14step3#124  _10T1prec11T1#125  _10T1prec14T1#126  _11T1prec14T1#127 
 _10T3prec11T3#128  _10T5prec11T5#129  _10T7prec11T7#130  _10T8prec11T8#131 
 _10T8prec14T8#132  _11T8prec14T8#133  _10T9prec11T9#134  _10T9prec13T9#135 
 _10T9prec14T9#136  _11T9prec13T9#137  _11T9prec14T9#138  _13T9prec14T9#139 
 _10T10prec11T10#140  _10T10prec13T10#141  _10T10prec14T10#142 
 _11T10prec13T10#143  _11T10prec14T10#144  _13T10prec14T10#145 
 _11T11prec13T11#146  _11T11prec14T11#147  _13T11prec14T11#148 
 _11T12prec13T12#149  _11T12prec14T12#150  _13T12prec14T12#151 
 _11T13prec12T13#152  _11T13prec13T13#153  _11T13prec14T13#154 
 _12T13prec13T13#155  _12T13prec14T13#156  _13T13prec14T13#157 
 _11T14prec12T14#158  _11T14prec13T14#159  _11T14prec14T14#160 
 _12T14prec13T14#161  _12T14prec14T14#162  _13T14prec14T14#163 
 _11T15prec12T15#164  _11T15prec13T15#165  _11T15prec14T15#166 
 _12T15prec13T15#167  _12T15prec14T15#168  _13T15prec14T15#169 
 _11T16prec12T16#170  _11T16prec13T16#171  _11T16prec14T16#172 
 _12T16prec13T16#173  _12T16prec14T16#174  _13T16prec14T16#175 
 _11T17prec12T17#176  _11T17prec14T17#177  _12T17prec14T17#178 
 _11T18prec12T18#179  _11T18prec14T18#180  _12T18prec14T18#181 
 _11T19prec12T19#182  _11T19prec14T19#183  _12T19prec14T19#184 
 _9T20prec11T20#185  _9T20prec12T20#186  _9T20prec14T20#187 
 _11T20prec12T20#188  _11T20prec14T20#189  _12T20prec14T20#190 
 _9T21prec11T21#191  _9T21prec12T21#192  _9T21prec14T21#193 
 _11T21prec12T21#194  _11T21prec14T21#195  _12T21prec14T21#196 
 _9T22prec11T22#197  _9T22prec12T22#198  _9T22prec14T22#199 
 _11T22prec12T22#200  _11T22prec14T22#201  _12T22prec14T22#202 
 _9T23prec11T23#203  _9T23prec12T23#204  _9T23prec14T23#205 
 _11T23prec12T23#206  _11T23prec14T23#207  _12T23prec14T23#208 
 _8T24prec9T24#209  _8T24prec11T24#210  _8T24prec12T24#211  _8T24prec14T24#212 
 _9T24prec11T24#213  _9T24prec12T24#214  _9T24prec14T24#215 
 _11T24prec12T24#216  _11T24prec14T24#217  _12T24prec14T24#218 
 _8T25prec9T25#219  _8T25prec11T25#220  _8T25prec12T25#221  _8T25prec14T25#222 
 _9T25prec11T25#223  _9T25prec12T25#224  _9T25prec14T25#225 
 _11T25prec12T25#226  _11T25prec14T25#227  _12T25prec14T25#228 
 _8T26prec9T26#229  _8T26prec11T26#230  _8T26prec12T26#231  _8T26prec14T26#232 
 _9T26prec11T26#233  _9T26prec12T26#234  _9T26prec14T26#235 
 _11T26prec12T26#236  _11T26prec14T26#237  _12T26prec14T26#238 
 _8T27prec9T27#239  _8T27prec12T27#240  _8T27prec14T27#241  _9T27prec12T27#242 
 _9T27prec14T27#243  _12T27prec14T27#244  _6T28prec12T28#245 
 _6T29prec12T29#246  _6T30prec12T30#247  _6T31prec12T31#248 
 _6T32prec12T32#249  _6T33prec12T33#250 
End
