ModelsBigM/BigMLazyCon_7.log
CPXPARAM_MIP_Tolerances_MIPGap                   0
Lazy constraint(s) or lazy constraint callback is present.
    Disabling dual reductions (CPX_PARAM_REDUCE) in presolve.
    Disabling non-linear reductions (CPX_PARAM_PRELINEAR) in presolve.
         Disabling repeat represolve because of lazy constraint/incumbent callback.
Tried aggregator 1 time.
MIP Presolve eliminated 231 rows and 9 columns.
MIP Presolve modified 3 coefficients.
Reduced MIP has 118 rows, 242 columns, and 246 nonzeros.
Reduced MIP has 141 binaries, 0 generals, 0 SOSs, and 0 indicators.
Presolve time = 0.00 sec. (0.21 ticks)
Probing time = 0.00 sec. (0.06 ticks)
Clique table members: 22.
MIP emphasis: balance optimality and feasibility.
MIP search method: traditional branch-and-cut.
Parallel mode: none, using 1 thread.
Root relaxation solution time = 0.00 sec. (0.13 ticks)

        Nodes                                         Cuts/
   Node  Left     Objective  IInf  Best Integer    Best Bound    ItCnt     Gap         Variable B NodeID Parent  Depth

      0     0        9.0000     5                      9.0000        5         
      0     0       12.0000     2                    Cuts: 24       52         
      0     0       12.0000     1                  MIRcuts: 2       54         
      0     0       12.0000     2                   Covers: 1       56         
*     0+    0                           12.0000       12.0000             0.00%
      0     0        cutoff             12.0000       12.0000       56    0.00%                        0             0
Elapsed time = 0.02 sec. (3.29 ticks, tree = 0.01 MB, solutions = 1)

Clique cuts applied:  15
Cover cuts applied:  1
Mixed integer rounding cuts applied:  8
User cuts applied:  10

Root node processing (before b&c):
  Real time             =    0.02 sec. (3.30 ticks)
Sequential b&c:
  Real time             =    0.00 sec. (0.00 ticks)
                          ------------
Total (root+branch&cut) =    0.02 sec. (3.30 ticks)
